; benchmark generated from python API
(set-info :status unknown)
(declare-fun cell_1_6 () Int)
(declare-fun cell_1_8 () Int)
(declare-fun cell_2_7 () Int)
(declare-fun cell_3_3 () Int)
(declare-fun cell_4_4 () Int)
(declare-fun cell_5_8 () Int)
(declare-fun cell_6_1 () Int)
(declare-fun cell_7_9 () Int)
(declare-fun cell_8_2 () Int)
(declare-fun cell_9_5 () Int)
(declare-fun cell_1_1 () Int)
(declare-fun cell_2_1 () Int)
(declare-fun cell_3_1 () Int)
(declare-fun cell_4_1 () Int)
(declare-fun cell_5_1 () Int)
(declare-fun cell_7_1 () Int)
(declare-fun cell_8_1 () Int)
(declare-fun cell_9_1 () Int)
(declare-fun cell_1_2 () Int)
(declare-fun cell_2_2 () Int)
(declare-fun cell_3_2 () Int)
(declare-fun cell_4_2 () Int)
(declare-fun cell_5_2 () Int)
(declare-fun cell_6_2 () Int)
(declare-fun cell_7_2 () Int)
(declare-fun cell_9_2 () Int)
(declare-fun cell_1_3 () Int)
(declare-fun cell_2_3 () Int)
(declare-fun cell_4_3 () Int)
(declare-fun cell_5_3 () Int)
(declare-fun cell_6_3 () Int)
(declare-fun cell_7_3 () Int)
(declare-fun cell_8_3 () Int)
(declare-fun cell_9_3 () Int)
(declare-fun cell_1_4 () Int)
(declare-fun cell_2_4 () Int)
(declare-fun cell_3_4 () Int)
(declare-fun cell_5_4 () Int)
(declare-fun cell_6_4 () Int)
(declare-fun cell_7_4 () Int)
(declare-fun cell_8_4 () Int)
(declare-fun cell_9_4 () Int)
(declare-fun cell_1_5 () Int)
(declare-fun cell_2_5 () Int)
(declare-fun cell_3_5 () Int)
(declare-fun cell_4_5 () Int)
(declare-fun cell_5_5 () Int)
(declare-fun cell_6_5 () Int)
(declare-fun cell_7_5 () Int)
(declare-fun cell_8_5 () Int)
(declare-fun cell_2_6 () Int)
(declare-fun cell_3_6 () Int)
(declare-fun cell_4_6 () Int)
(declare-fun cell_5_6 () Int)
(declare-fun cell_6_6 () Int)
(declare-fun cell_7_6 () Int)
(declare-fun cell_8_6 () Int)
(declare-fun cell_9_6 () Int)
(declare-fun cell_1_7 () Int)
(declare-fun cell_3_7 () Int)
(declare-fun cell_4_7 () Int)
(declare-fun cell_5_7 () Int)
(declare-fun cell_6_7 () Int)
(declare-fun cell_7_7 () Int)
(declare-fun cell_8_7 () Int)
(declare-fun cell_9_7 () Int)
(declare-fun cell_2_8 () Int)
(declare-fun cell_3_8 () Int)
(declare-fun cell_4_8 () Int)
(declare-fun cell_6_8 () Int)
(declare-fun cell_7_8 () Int)
(declare-fun cell_8_8 () Int)
(declare-fun cell_9_8 () Int)
(declare-fun cell_1_9 () Int)
(declare-fun cell_2_9 () Int)
(declare-fun cell_3_9 () Int)
(declare-fun cell_4_9 () Int)
(declare-fun cell_5_9 () Int)
(declare-fun cell_6_9 () Int)
(declare-fun cell_8_9 () Int)
(declare-fun cell_9_9 () Int)
(assert
 (= cell_1_6 1))
(assert
 (= cell_1_8 2))
(assert
 (= cell_2_7 1))
(assert
 (= cell_3_3 1))
(assert
 (= cell_4_4 1))
(assert
 (= cell_5_8 1))
(assert
 (= cell_6_1 1))
(assert
 (= cell_7_9 1))
(assert
 (= cell_8_2 1))
(assert
 (= cell_9_5 1))
(assert
 (let (($x3756 (= cell_1_1 9)))
 (let (($x2003 (= cell_1_1 8)))
 (let (($x3073 (= cell_1_1 7)))
 (let (($x3969 (= cell_1_1 6)))
 (let (($x3979 (= cell_1_1 5)))
 (let (($x694 (= cell_1_1 4)))
 (let (($x3184 (= cell_1_1 3)))
 (let (($x5281 (= cell_1_1 2)))
 (let (($x5548 (= cell_1_1 1)))
 (or $x5548 $x5281 $x3184 $x694 $x3979 $x3969 $x3073 $x2003 $x3756)))))))))))
(assert
 (let (($x1605 (= cell_2_1 9)))
 (let (($x5459 (= cell_2_1 8)))
 (let (($x6346 (= cell_2_1 7)))
 (let (($x4551 (= cell_2_1 6)))
 (let (($x5256 (= cell_2_1 5)))
 (let (($x806 (= cell_2_1 4)))
 (let (($x2362 (= cell_2_1 3)))
 (let (($x4866 (= cell_2_1 2)))
 (let (($x1453 (= cell_2_1 1)))
 (or $x1453 $x4866 $x2362 $x806 $x5256 $x4551 $x6346 $x5459 $x1605)))))))))))
(assert
 (let (($x2481 (= cell_3_1 9)))
 (let (($x4819 (= cell_3_1 8)))
 (let (($x4176 (= cell_3_1 7)))
 (let (($x1415 (= cell_3_1 6)))
 (let (($x1834 (= cell_3_1 5)))
 (let (($x2903 (= cell_3_1 4)))
 (let (($x1424 (= cell_3_1 3)))
 (let (($x4152 (= cell_3_1 2)))
 (let (($x4617 (= cell_3_1 1)))
 (or $x4617 $x4152 $x1424 $x2903 $x1834 $x1415 $x4176 $x4819 $x2481)))))))))))
(assert
 (let (($x4451 (= cell_4_1 9)))
 (let (($x1815 (= cell_4_1 8)))
 (let (($x577 (= cell_4_1 7)))
 (let (($x754 (= cell_4_1 6)))
 (let (($x236 (= cell_4_1 5)))
 (let (($x3472 (= cell_4_1 4)))
 (let (($x3687 (= cell_4_1 3)))
 (let (($x1024 (= cell_4_1 2)))
 (let (($x158 (= cell_4_1 1)))
 (or $x158 $x1024 $x3687 $x3472 $x236 $x754 $x577 $x1815 $x4451)))))))))))
(assert
 (let (($x3808 (= cell_5_1 9)))
 (let (($x6396 (= cell_5_1 8)))
 (let (($x2580 (= cell_5_1 7)))
 (let (($x4790 (= cell_5_1 6)))
 (let (($x3644 (= cell_5_1 5)))
 (let (($x856 (= cell_5_1 4)))
 (let (($x762 (= cell_5_1 3)))
 (let (($x237 (= cell_5_1 2)))
 (let (($x5230 (= cell_5_1 1)))
 (or $x5230 $x237 $x762 $x856 $x3644 $x4790 $x2580 $x6396 $x3808)))))))))))
(assert
 (let (($x2139 (= cell_6_1 1)))
 (or $x2139 (= cell_6_1 2) (= cell_6_1 3) (= cell_6_1 4) (= cell_6_1 5) (= cell_6_1 6) (= cell_6_1 7) (= cell_6_1 8) (= cell_6_1 9))))
(assert
 (let (($x2272 (= cell_7_1 9)))
 (let (($x6299 (= cell_7_1 8)))
 (let (($x2894 (= cell_7_1 7)))
 (let (($x4224 (= cell_7_1 6)))
 (let (($x5540 (= cell_7_1 5)))
 (let (($x3930 (= cell_7_1 4)))
 (let (($x3498 (= cell_7_1 3)))
 (let (($x5415 (= cell_7_1 2)))
 (let (($x2525 (= cell_7_1 1)))
 (or $x2525 $x5415 $x3498 $x3930 $x5540 $x4224 $x2894 $x6299 $x2272)))))))))))
(assert
 (let (($x4738 (= cell_8_1 9)))
 (let (($x3545 (= cell_8_1 8)))
 (let (($x2194 (= cell_8_1 7)))
 (let (($x665 (= cell_8_1 6)))
 (let (($x3772 (= cell_8_1 5)))
 (let (($x1501 (= cell_8_1 4)))
 (let (($x1171 (= cell_8_1 3)))
 (let (($x4265 (= cell_8_1 2)))
 (let (($x1966 (= cell_8_1 1)))
 (or $x1966 $x4265 $x1171 $x1501 $x3772 $x665 $x2194 $x3545 $x4738)))))))))))
(assert
 (let (($x3887 (= cell_9_1 9)))
 (let (($x4041 (= cell_9_1 8)))
 (let (($x5860 (= cell_9_1 7)))
 (let (($x4112 (= cell_9_1 6)))
 (let (($x2523 (= cell_9_1 5)))
 (let (($x788 (= cell_9_1 4)))
 (let (($x3014 (= cell_9_1 3)))
 (let (($x5196 (= cell_9_1 2)))
 (let (($x1305 (= cell_9_1 1)))
 (or $x1305 $x5196 $x3014 $x788 $x2523 $x4112 $x5860 $x4041 $x3887)))))))))))
(assert
 (let (($x2954 (= cell_1_2 9)))
 (let (($x4999 (= cell_1_2 8)))
 (let (($x3052 (= cell_1_2 7)))
 (let (($x6208 (= cell_1_2 6)))
 (let (($x4017 (= cell_1_2 5)))
 (let (($x5522 (= cell_1_2 4)))
 (let (($x4442 (= cell_1_2 3)))
 (let (($x1823 (= cell_1_2 2)))
 (let (($x4448 (= cell_1_2 1)))
 (or $x4448 $x1823 $x4442 $x5522 $x4017 $x6208 $x3052 $x4999 $x2954)))))))))))
(assert
 (let (($x3868 (= cell_2_2 9)))
 (let (($x3722 (= cell_2_2 8)))
 (let (($x4057 (= cell_2_2 7)))
 (let (($x4826 (= cell_2_2 6)))
 (let (($x715 (= cell_2_2 5)))
 (let (($x4489 (= cell_2_2 4)))
 (let (($x3779 (= cell_2_2 3)))
 (let (($x4074 (= cell_2_2 2)))
 (let (($x1218 (= cell_2_2 1)))
 (or $x1218 $x4074 $x3779 $x4489 $x715 $x4826 $x4057 $x3722 $x3868)))))))))))
(assert
 (let (($x1662 (= cell_3_2 9)))
 (let (($x465 (= cell_3_2 8)))
 (let (($x5077 (= cell_3_2 7)))
 (let (($x4434 (= cell_3_2 6)))
 (let (($x1032 (= cell_3_2 5)))
 (let (($x3934 (= cell_3_2 4)))
 (let (($x3265 (= cell_3_2 3)))
 (let (($x4425 (= cell_3_2 2)))
 (let (($x5550 (= cell_3_2 1)))
 (or $x5550 $x4425 $x3265 $x3934 $x1032 $x4434 $x5077 $x465 $x1662)))))))))))
(assert
 (let (($x1294 (= cell_4_2 9)))
 (let (($x393 (= cell_4_2 8)))
 (let (($x2675 (= cell_4_2 7)))
 (let (($x3474 (= cell_4_2 6)))
 (let (($x5872 (= cell_4_2 5)))
 (let (($x558 (= cell_4_2 4)))
 (let (($x5734 (= cell_4_2 3)))
 (let (($x4066 (= cell_4_2 2)))
 (let (($x989 (= cell_4_2 1)))
 (or $x989 $x4066 $x5734 $x558 $x5872 $x3474 $x2675 $x393 $x1294)))))))))))
(assert
 (let (($x5680 (= cell_5_2 9)))
 (let (($x4101 (= cell_5_2 8)))
 (let (($x4348 (= cell_5_2 7)))
 (let (($x4651 (= cell_5_2 6)))
 (let (($x1154 (= cell_5_2 5)))
 (let (($x6425 (= cell_5_2 4)))
 (let (($x4625 (= cell_5_2 3)))
 (let (($x1056 (= cell_5_2 2)))
 (let (($x1073 (= cell_5_2 1)))
 (or $x1073 $x1056 $x4625 $x6425 $x1154 $x4651 $x4348 $x4101 $x5680)))))))))))
(assert
 (let (($x3552 (= cell_6_2 9)))
 (let (($x4016 (= cell_6_2 8)))
 (let (($x1063 (= cell_6_2 7)))
 (let (($x794 (= cell_6_2 6)))
 (let (($x2793 (= cell_6_2 5)))
 (let (($x2493 (= cell_6_2 4)))
 (let (($x3142 (= cell_6_2 3)))
 (let (($x4409 (= cell_6_2 2)))
 (let (($x204 (= cell_6_2 1)))
 (or $x204 $x4409 $x3142 $x2493 $x2793 $x794 $x1063 $x4016 $x3552)))))))))))
(assert
 (let (($x2476 (= cell_7_2 9)))
 (let (($x6561 (= cell_7_2 8)))
 (let (($x4967 (= cell_7_2 7)))
 (let (($x900 (= cell_7_2 6)))
 (let (($x4131 (= cell_7_2 5)))
 (let (($x1008 (= cell_7_2 4)))
 (let (($x2989 (= cell_7_2 3)))
 (let (($x5357 (= cell_7_2 2)))
 (let (($x68 (= cell_7_2 1)))
 (or $x68 $x5357 $x2989 $x1008 $x4131 $x900 $x4967 $x6561 $x2476)))))))))))
(assert
 (let (($x547 (= cell_8_2 1)))
 (or $x547 (= cell_8_2 2) (= cell_8_2 3) (= cell_8_2 4) (= cell_8_2 5) (= cell_8_2 6) (= cell_8_2 7) (= cell_8_2 8) (= cell_8_2 9))))
(assert
 (let (($x948 (= cell_9_2 9)))
 (let (($x5968 (= cell_9_2 8)))
 (let (($x2827 (= cell_9_2 7)))
 (let (($x96 (= cell_9_2 6)))
 (let (($x244 (= cell_9_2 5)))
 (let (($x480 (= cell_9_2 4)))
 (let (($x4484 (= cell_9_2 3)))
 (let (($x3882 (= cell_9_2 2)))
 (let (($x5354 (= cell_9_2 1)))
 (or $x5354 $x3882 $x4484 $x480 $x244 $x96 $x2827 $x5968 $x948)))))))))))
(assert
 (let (($x6095 (= cell_1_3 9)))
 (let (($x500 (= cell_1_3 8)))
 (let (($x4880 (= cell_1_3 7)))
 (let (($x5710 (= cell_1_3 6)))
 (let (($x1114 (= cell_1_3 5)))
 (let (($x3681 (= cell_1_3 4)))
 (let (($x4514 (= cell_1_3 3)))
 (let (($x3718 (= cell_1_3 2)))
 (let (($x4834 (= cell_1_3 1)))
 (or $x4834 $x3718 $x4514 $x3681 $x1114 $x5710 $x4880 $x500 $x6095)))))))))))
(assert
 (let (($x127 (= cell_2_3 9)))
 (let (($x1315 (= cell_2_3 8)))
 (let (($x3017 (= cell_2_3 7)))
 (let (($x2725 (= cell_2_3 6)))
 (let (($x5046 (= cell_2_3 5)))
 (let (($x32 (= cell_2_3 4)))
 (let (($x3975 (= cell_2_3 3)))
 (let (($x4136 (= cell_2_3 2)))
 (let (($x5093 (= cell_2_3 1)))
 (or $x5093 $x4136 $x3975 $x32 $x5046 $x2725 $x3017 $x1315 $x127)))))))))))
(assert
 (let (($x1368 (= cell_3_3 1)))
 (or $x1368 (= cell_3_3 2) (= cell_3_3 3) (= cell_3_3 4) (= cell_3_3 5) (= cell_3_3 6) (= cell_3_3 7) (= cell_3_3 8) (= cell_3_3 9))))
(assert
 (let (($x5782 (= cell_4_3 9)))
 (let (($x3408 (= cell_4_3 8)))
 (let (($x4260 (= cell_4_3 7)))
 (let (($x3739 (= cell_4_3 6)))
 (let (($x5870 (= cell_4_3 5)))
 (let (($x532 (= cell_4_3 4)))
 (let (($x5762 (= cell_4_3 3)))
 (let (($x4642 (= cell_4_3 2)))
 (let (($x4576 (= cell_4_3 1)))
 (or $x4576 $x4642 $x5762 $x532 $x5870 $x3739 $x4260 $x3408 $x5782)))))))))))
(assert
 (let (($x2654 (= cell_5_3 9)))
 (let (($x4310 (= cell_5_3 8)))
 (let (($x2446 (= cell_5_3 7)))
 (let (($x731 (= cell_5_3 6)))
 (let (($x4548 (= cell_5_3 5)))
 (let (($x3962 (= cell_5_3 4)))
 (let (($x5499 (= cell_5_3 3)))
 (let (($x6051 (= cell_5_3 2)))
 (let (($x5950 (= cell_5_3 1)))
 (or $x5950 $x6051 $x5499 $x3962 $x4548 $x731 $x2446 $x4310 $x2654)))))))))))
(assert
 (let (($x6531 (= cell_6_3 2)))
 (let (($x3261 (= cell_6_3 1)))
 (or $x3261 $x6531 (= cell_6_3 3) (= cell_6_3 4) (= cell_6_3 5) (= cell_6_3 6) (= cell_6_3 7) (= cell_6_3 8) (= cell_6_3 9)))))
(assert
 (let (($x2373 (= cell_7_3 9)))
 (let (($x3951 (= cell_7_3 8)))
 (let (($x224 (= cell_7_3 7)))
 (let (($x4150 (= cell_7_3 6)))
 (let (($x6418 (= cell_7_3 5)))
 (let (($x4118 (= cell_7_3 4)))
 (let (($x2839 (= cell_7_3 3)))
 (let (($x3977 (= cell_7_3 2)))
 (let (($x6316 (= cell_7_3 1)))
 (or $x6316 $x3977 $x2839 $x4118 $x6418 $x4150 $x224 $x3951 $x2373)))))))))))
(assert
 (let (($x6160 (= cell_8_3 1)))
 (or $x6160 (= cell_8_3 2) (= cell_8_3 3) (= cell_8_3 4) (= cell_8_3 5) (= cell_8_3 6) (= cell_8_3 7) (= cell_8_3 8) (= cell_8_3 9))))
(assert
 (let (($x2908 (= cell_9_3 9)))
 (let (($x6303 (= cell_9_3 8)))
 (let (($x2547 (= cell_9_3 7)))
 (let (($x1818 (= cell_9_3 6)))
 (let (($x6182 (= cell_9_3 5)))
 (let (($x3290 (= cell_9_3 4)))
 (let (($x3796 (= cell_9_3 3)))
 (let (($x3744 (= cell_9_3 2)))
 (let (($x6436 (= cell_9_3 1)))
 (or $x6436 $x3744 $x3796 $x3290 $x6182 $x1818 $x2547 $x6303 $x2908)))))))))))
(assert
 (let (($x4915 (= cell_1_4 9)))
 (let (($x5886 (= cell_1_4 8)))
 (let (($x4363 (= cell_1_4 7)))
 (let (($x6217 (= cell_1_4 6)))
 (let (($x3606 (= cell_1_4 5)))
 (let (($x4318 (= cell_1_4 4)))
 (let (($x5831 (= cell_1_4 3)))
 (let (($x4291 (= cell_1_4 2)))
 (let (($x6558 (= cell_1_4 1)))
 (or $x6558 $x4291 $x5831 $x4318 $x3606 $x6217 $x4363 $x5886 $x4915)))))))))))
(assert
 (let (($x6350 (= cell_2_4 9)))
 (let (($x1184 (= cell_2_4 8)))
 (let (($x4785 (= cell_2_4 7)))
 (let (($x408 (= cell_2_4 6)))
 (let (($x4371 (= cell_2_4 5)))
 (let (($x4467 (= cell_2_4 4)))
 (let (($x3895 (= cell_2_4 3)))
 (let (($x3566 (= cell_2_4 2)))
 (let (($x4056 (= cell_2_4 1)))
 (or $x4056 $x3566 $x3895 $x4467 $x4371 $x408 $x4785 $x1184 $x6350)))))))))))
(assert
 (let (($x4539 (= cell_3_4 9)))
 (let (($x2799 (= cell_3_4 8)))
 (let (($x4085 (= cell_3_4 7)))
 (let (($x2593 (= cell_3_4 6)))
 (let (($x6547 (= cell_3_4 5)))
 (let (($x167 (= cell_3_4 4)))
 (let (($x6456 (= cell_3_4 3)))
 (let (($x4423 (= cell_3_4 2)))
 (let (($x5204 (= cell_3_4 1)))
 (or $x5204 $x4423 $x6456 $x167 $x6547 $x2593 $x4085 $x2799 $x4539)))))))))))
(assert
 (let (($x4104 (= cell_4_4 1)))
 (or $x4104 (= cell_4_4 2) (= cell_4_4 3) (= cell_4_4 4) (= cell_4_4 5) (= cell_4_4 6) (= cell_4_4 7) (= cell_4_4 8) (= cell_4_4 9))))
(assert
 (let (($x3894 (= cell_5_4 9)))
 (let (($x5369 (= cell_5_4 8)))
 (let (($x5378 (= cell_5_4 7)))
 (let (($x862 (= cell_5_4 6)))
 (let (($x4537 (= cell_5_4 5)))
 (let (($x6123 (= cell_5_4 4)))
 (let (($x4414 (= cell_5_4 3)))
 (let (($x4138 (= cell_5_4 2)))
 (let (($x2193 (= cell_5_4 1)))
 (or $x2193 $x4138 $x4414 $x6123 $x4537 $x862 $x5378 $x5369 $x3894)))))))))))
(assert
 (let (($x2730 (= cell_6_4 1)))
 (or $x2730 (= cell_6_4 2) (= cell_6_4 3) (= cell_6_4 4) (= cell_6_4 5) (= cell_6_4 6) (= cell_6_4 7) (= cell_6_4 8) (= cell_6_4 9))))
(assert
 (let (($x4699 (= cell_7_4 9)))
 (let (($x3846 (= cell_7_4 8)))
 (let (($x4529 (= cell_7_4 7)))
 (let (($x712 (= cell_7_4 6)))
 (let (($x1742 (= cell_7_4 5)))
 (let (($x4375 (= cell_7_4 4)))
 (let (($x1019 (= cell_7_4 3)))
 (let (($x3557 (= cell_7_4 2)))
 (let (($x3704 (= cell_7_4 1)))
 (or $x3704 $x3557 $x1019 $x4375 $x1742 $x712 $x4529 $x3846 $x4699)))))))))))
(assert
 (let (($x5019 (= cell_8_4 9)))
 (let (($x9176 (= cell_8_4 8)))
 (let (($x4426 (= cell_8_4 7)))
 (let (($x972 (= cell_8_4 6)))
 (let (($x4780 (= cell_8_4 5)))
 (let (($x4891 (= cell_8_4 4)))
 (let (($x852 (= cell_8_4 3)))
 (let (($x605 (= cell_8_4 2)))
 (let (($x3765 (= cell_8_4 1)))
 (or $x3765 $x605 $x852 $x4891 $x4780 $x972 $x4426 $x9176 $x5019)))))))))))
(assert
 (let (($x4212 (= cell_9_4 9)))
 (let (($x2022 (= cell_9_4 8)))
 (let (($x1663 (= cell_9_4 7)))
 (let (($x1643 (= cell_9_4 6)))
 (let (($x4092 (= cell_9_4 5)))
 (let (($x5999 (= cell_9_4 4)))
 (let (($x1122 (= cell_9_4 3)))
 (let (($x5875 (= cell_9_4 2)))
 (let (($x2050 (= cell_9_4 1)))
 (or $x2050 $x5875 $x1122 $x5999 $x4092 $x1643 $x1663 $x2022 $x4212)))))))))))
(assert
 (let (($x360 (= cell_1_5 9)))
 (let (($x4126 (= cell_1_5 8)))
 (let (($x4602 (= cell_1_5 7)))
 (let (($x3178 (= cell_1_5 6)))
 (let (($x4493 (= cell_1_5 5)))
 (let (($x4385 (= cell_1_5 4)))
 (let (($x663 (= cell_1_5 3)))
 (let (($x1597 (= cell_1_5 2)))
 (let (($x3685 (= cell_1_5 1)))
 (or $x3685 $x1597 $x663 $x4385 $x4493 $x3178 $x4602 $x4126 $x360)))))))))))
(assert
 (let (($x3782 (= cell_2_5 9)))
 (let (($x4384 (= cell_2_5 8)))
 (let (($x3798 (= cell_2_5 7)))
 (let (($x3529 (= cell_2_5 6)))
 (let (($x1179 (= cell_2_5 5)))
 (let (($x1849 (= cell_2_5 4)))
 (let (($x3925 (= cell_2_5 3)))
 (let (($x6386 (= cell_2_5 2)))
 (let (($x924 (= cell_2_5 1)))
 (or $x924 $x6386 $x3925 $x1849 $x1179 $x3529 $x3798 $x4384 $x3782)))))))))))
(assert
 (let (($x4662 (= cell_3_5 9)))
 (let (($x3489 (= cell_3_5 8)))
 (let (($x2544 (= cell_3_5 7)))
 (let (($x5895 (= cell_3_5 6)))
 (let (($x3531 (= cell_3_5 5)))
 (let (($x3110 (= cell_3_5 4)))
 (let (($x3364 (= cell_3_5 3)))
 (let (($x1342 (= cell_3_5 2)))
 (let (($x4108 (= cell_3_5 1)))
 (or $x4108 $x1342 $x3364 $x3110 $x3531 $x5895 $x2544 $x3489 $x4662)))))))))))
(assert
 (let (($x3138 (= cell_4_5 9)))
 (let (($x6044 (= cell_4_5 8)))
 (let (($x5426 (= cell_4_5 7)))
 (let (($x4606 (= cell_4_5 6)))
 (let (($x277 (= cell_4_5 5)))
 (let (($x2381 (= cell_4_5 4)))
 (let (($x3817 (= cell_4_5 3)))
 (let (($x3387 (= cell_4_5 2)))
 (let (($x5975 (= cell_4_5 1)))
 (or $x5975 $x3387 $x3817 $x2381 $x277 $x4606 $x5426 $x6044 $x3138)))))))))))
(assert
 (let (($x3469 (= cell_5_5 9)))
 (let (($x7797 (= cell_5_5 8)))
 (let (($x1905 (= cell_5_5 7)))
 (let (($x5194 (= cell_5_5 6)))
 (let (($x4838 (= cell_5_5 5)))
 (let (($x276 (= cell_5_5 4)))
 (let (($x5408 (= cell_5_5 3)))
 (let (($x3039 (= cell_5_5 2)))
 (let (($x576 (= cell_5_5 1)))
 (or $x576 $x3039 $x5408 $x276 $x4838 $x5194 $x1905 $x7797 $x3469)))))))))))
(assert
 (let (($x3907 (= cell_6_5 9)))
 (let (($x6443 (= cell_6_5 8)))
 (let (($x4531 (= cell_6_5 7)))
 (let (($x4183 (= cell_6_5 6)))
 (let (($x410 (= cell_6_5 5)))
 (let (($x5320 (= cell_6_5 4)))
 (let (($x609 (= cell_6_5 3)))
 (let (($x3654 (= cell_6_5 2)))
 (let (($x1223 (= cell_6_5 1)))
 (or $x1223 $x3654 $x609 $x5320 $x410 $x4183 $x4531 $x6443 $x3907)))))))))))
(assert
 (let (($x894 (= cell_7_5 9)))
 (let (($x3675 (= cell_7_5 8)))
 (let (($x2743 (= cell_7_5 7)))
 (let (($x3313 (= cell_7_5 6)))
 (let (($x5598 (= cell_7_5 5)))
 (let (($x1513 (= cell_7_5 4)))
 (let (($x1712 (= cell_7_5 3)))
 (let (($x5625 (= cell_7_5 2)))
 (let (($x4319 (= cell_7_5 1)))
 (or $x4319 $x5625 $x1712 $x1513 $x5598 $x3313 $x2743 $x3675 $x894)))))))))))
(assert
 (let (($x4086 (= cell_8_5 9)))
 (let (($x1255 (= cell_8_5 8)))
 (let (($x3444 (= cell_8_5 7)))
 (let (($x2604 (= cell_8_5 6)))
 (let (($x854 (= cell_8_5 5)))
 (let (($x6078 (= cell_8_5 4)))
 (let (($x1924 (= cell_8_5 3)))
 (let (($x1958 (= cell_8_5 2)))
 (let (($x4026 (= cell_8_5 1)))
 (or $x4026 $x1958 $x1924 $x6078 $x854 $x2604 $x3444 $x1255 $x4086)))))))))))
(assert
 (let (($x3016 (= cell_9_5 1)))
 (or $x3016 (= cell_9_5 2) (= cell_9_5 3) (= cell_9_5 4) (= cell_9_5 5) (= cell_9_5 6) (= cell_9_5 7) (= cell_9_5 8) (= cell_9_5 9))))
(assert
 (let (($x6086 (= cell_1_6 1)))
 (or $x6086 (= cell_1_6 2) (= cell_1_6 3) (= cell_1_6 4) (= cell_1_6 5) (= cell_1_6 6) (= cell_1_6 7) (= cell_1_6 8) (= cell_1_6 9))))
(assert
 (let (($x4879 (= cell_2_6 9)))
 (let (($x3700 (= cell_2_6 8)))
 (let (($x3307 (= cell_2_6 7)))
 (let (($x2754 (= cell_2_6 6)))
 (let (($x3679 (= cell_2_6 5)))
 (let (($x3555 (= cell_2_6 4)))
 (let (($x819 (= cell_2_6 3)))
 (let (($x3916 (= cell_2_6 2)))
 (let (($x351 (= cell_2_6 1)))
 (or $x351 $x3916 $x819 $x3555 $x3679 $x2754 $x3307 $x3700 $x4879)))))))))))
(assert
 (let (($x628 (= cell_3_6 2)))
 (let (($x2213 (= cell_3_6 1)))
 (or $x2213 $x628 (= cell_3_6 3) (= cell_3_6 4) (= cell_3_6 5) (= cell_3_6 6) (= cell_3_6 7) (= cell_3_6 8) (= cell_3_6 9)))))
(assert
 (let (($x2276 (= cell_4_6 1)))
 (or $x2276 (= cell_4_6 2) (= cell_4_6 3) (= cell_4_6 4) (= cell_4_6 5) (= cell_4_6 6) (= cell_4_6 7) (= cell_4_6 8) (= cell_4_6 9))))
(assert
 (let (($x4832 (= cell_5_6 9)))
 (let (($x4497 (= cell_5_6 8)))
 (let (($x1152 (= cell_5_6 7)))
 (let (($x5696 (= cell_5_6 6)))
 (let (($x3564 (= cell_5_6 5)))
 (let (($x4170 (= cell_5_6 4)))
 (let (($x6030 (= cell_5_6 3)))
 (let (($x5753 (= cell_5_6 2)))
 (let (($x829 (= cell_5_6 1)))
 (or $x829 $x5753 $x6030 $x4170 $x3564 $x5696 $x1152 $x4497 $x4832)))))))))))
(assert
 (let (($x3551 (= cell_6_6 1)))
 (or $x3551 (= cell_6_6 2) (= cell_6_6 3) (= cell_6_6 4) (= cell_6_6 5) (= cell_6_6 6) (= cell_6_6 7) (= cell_6_6 8) (= cell_6_6 9))))
(assert
 (let (($x3823 (= cell_7_6 9)))
 (let (($x1279 (= cell_7_6 8)))
 (let (($x2237 (= cell_7_6 7)))
 (let (($x3003 (= cell_7_6 6)))
 (let (($x1046 (= cell_7_6 5)))
 (let (($x769 (= cell_7_6 4)))
 (let (($x1329 (= cell_7_6 3)))
 (let (($x1792 (= cell_7_6 2)))
 (let (($x196 (= cell_7_6 1)))
 (or $x196 $x1792 $x1329 $x769 $x1046 $x3003 $x2237 $x1279 $x3823)))))))))))
(assert
 (let (($x1796 (= cell_8_6 9)))
 (let (($x399 (= cell_8_6 8)))
 (let (($x2936 (= cell_8_6 7)))
 (let (($x117 (= cell_8_6 6)))
 (let (($x3309 (= cell_8_6 5)))
 (let (($x3937 (= cell_8_6 4)))
 (let (($x896 (= cell_8_6 3)))
 (let (($x6360 (= cell_8_6 2)))
 (let (($x3613 (= cell_8_6 1)))
 (or $x3613 $x6360 $x896 $x3937 $x3309 $x117 $x2936 $x399 $x1796)))))))))))
(assert
 (let (($x4285 (= cell_9_6 1)))
 (or $x4285 (= cell_9_6 2) (= cell_9_6 3) (= cell_9_6 4) (= cell_9_6 5) (= cell_9_6 6) (= cell_9_6 7) (= cell_9_6 8) (= cell_9_6 9))))
(assert
 (let (($x5460 (= cell_1_7 9)))
 (let (($x2126 (= cell_1_7 8)))
 (let (($x1018 (= cell_1_7 7)))
 (let (($x2819 (= cell_1_7 6)))
 (let (($x3177 (= cell_1_7 5)))
 (let (($x2019 (= cell_1_7 4)))
 (let (($x4123 (= cell_1_7 3)))
 (let (($x5309 (= cell_1_7 2)))
 (let (($x5051 (= cell_1_7 1)))
 (or $x5051 $x5309 $x4123 $x2019 $x3177 $x2819 $x1018 $x2126 $x5460)))))))))))
(assert
 (let (($x5845 (= cell_2_7 1)))
 (or $x5845 (= cell_2_7 2) (= cell_2_7 3) (= cell_2_7 4) (= cell_2_7 5) (= cell_2_7 6) (= cell_2_7 7) (= cell_2_7 8) (= cell_2_7 9))))
(assert
 (let (($x3794 (= cell_3_7 2)))
 (let (($x4198 (= cell_3_7 1)))
 (or $x4198 $x3794 (= cell_3_7 3) (= cell_3_7 4) (= cell_3_7 5) (= cell_3_7 6) (= cell_3_7 7) (= cell_3_7 8) (= cell_3_7 9)))))
(assert
 (let (($x4555 (= cell_4_7 9)))
 (let (($x4516 (= cell_4_7 8)))
 (let (($x2588 (= cell_4_7 7)))
 (let (($x3632 (= cell_4_7 6)))
 (let (($x5311 (= cell_4_7 5)))
 (let (($x534 (= cell_4_7 4)))
 (let (($x4007 (= cell_4_7 3)))
 (let (($x3992 (= cell_4_7 2)))
 (let (($x4411 (= cell_4_7 1)))
 (or $x4411 $x3992 $x4007 $x534 $x5311 $x3632 $x2588 $x4516 $x4555)))))))))))
(assert
 (let (($x1978 (= cell_5_7 9)))
 (let (($x3647 (= cell_5_7 8)))
 (let (($x2779 (= cell_5_7 7)))
 (let (($x218 (= cell_5_7 6)))
 (let (($x4831 (= cell_5_7 5)))
 (let (($x6071 (= cell_5_7 4)))
 (let (($x11 (= cell_5_7 3)))
 (let (($x5272 (= cell_5_7 2)))
 (let (($x3701 (= cell_5_7 1)))
 (or $x3701 $x5272 $x11 $x6071 $x4831 $x218 $x2779 $x3647 $x1978)))))))))))
(assert
 (let (($x421 (= cell_6_7 1)))
 (or $x421 (= cell_6_7 2) (= cell_6_7 3) (= cell_6_7 4) (= cell_6_7 5) (= cell_6_7 6) (= cell_6_7 7) (= cell_6_7 8) (= cell_6_7 9))))
(assert
 (let (($x3091 (= cell_7_7 9)))
 (let (($x3901 (= cell_7_7 8)))
 (let (($x5769 (= cell_7_7 7)))
 (let (($x1070 (= cell_7_7 6)))
 (let (($x987 (= cell_7_7 5)))
 (let (($x359 (= cell_7_7 4)))
 (let (($x3723 (= cell_7_7 3)))
 (let (($x1868 (= cell_7_7 2)))
 (let (($x20 (= cell_7_7 1)))
 (or $x20 $x1868 $x3723 $x359 $x987 $x1070 $x5769 $x3901 $x3091)))))))))))
(assert
 (let (($x4594 (= cell_8_7 1)))
 (or $x4594 (= cell_8_7 2) (= cell_8_7 3) (= cell_8_7 4) (= cell_8_7 5) (= cell_8_7 6) (= cell_8_7 7) (= cell_8_7 8) (= cell_8_7 9))))
(assert
 (let (($x4905 (= cell_9_7 1)))
 (or $x4905 (= cell_9_7 2) (= cell_9_7 3) (= cell_9_7 4) (= cell_9_7 5) (= cell_9_7 6) (= cell_9_7 7) (= cell_9_7 8) (= cell_9_7 9))))
(assert
 (let (($x3828 (= cell_1_8 2)))
 (or (= cell_1_8 1) $x3828 (= cell_1_8 3) (= cell_1_8 4) (= cell_1_8 5) (= cell_1_8 6) (= cell_1_8 7) (= cell_1_8 8) (= cell_1_8 9))))
(assert
 (let (($x4249 (= cell_2_8 9)))
 (let (($x750 (= cell_2_8 8)))
 (let (($x3103 (= cell_2_8 7)))
 (let (($x4791 (= cell_2_8 6)))
 (let (($x3668 (= cell_2_8 5)))
 (let (($x4119 (= cell_2_8 4)))
 (let (($x3386 (= cell_2_8 3)))
 (let (($x4564 (= cell_2_8 2)))
 (let (($x556 (= cell_2_8 1)))
 (or $x556 $x4564 $x3386 $x4119 $x3668 $x4791 $x3103 $x750 $x4249)))))))))))
(assert
 (let (($x5619 (= cell_3_8 9)))
 (let (($x1570 (= cell_3_8 8)))
 (let (($x201 (= cell_3_8 7)))
 (let (($x3345 (= cell_3_8 6)))
 (let (($x4793 (= cell_3_8 5)))
 (let (($x3544 (= cell_3_8 4)))
 (let (($x3009 (= cell_3_8 3)))
 (let (($x481 (= cell_3_8 2)))
 (let (($x5516 (= cell_3_8 1)))
 (or $x5516 $x481 $x3009 $x3544 $x4793 $x3345 $x201 $x1570 $x5619)))))))))))
(assert
 (let (($x2226 (= cell_4_8 9)))
 (let (($x4640 (= cell_4_8 8)))
 (let (($x1884 (= cell_4_8 7)))
 (let (($x930 (= cell_4_8 6)))
 (let (($x6454 (= cell_4_8 5)))
 (let (($x2642 (= cell_4_8 4)))
 (let (($x4405 (= cell_4_8 3)))
 (let (($x5645 (= cell_4_8 2)))
 (let (($x761 (= cell_4_8 1)))
 (or $x761 $x5645 $x4405 $x2642 $x6454 $x930 $x1884 $x4640 $x2226)))))))))))
(assert
 (let (($x5701 (= cell_5_8 1)))
 (or $x5701 (= cell_5_8 2) (= cell_5_8 3) (= cell_5_8 4) (= cell_5_8 5) (= cell_5_8 6) (= cell_5_8 7) (= cell_5_8 8) (= cell_5_8 9))))
(assert
 (let (($x3902 (= cell_6_8 2)))
 (let (($x4018 (= cell_6_8 1)))
 (or $x4018 $x3902 (= cell_6_8 3) (= cell_6_8 4) (= cell_6_8 5) (= cell_6_8 6) (= cell_6_8 7) (= cell_6_8 8) (= cell_6_8 9)))))
(assert
 (let (($x5740 (= cell_7_8 9)))
 (let (($x3856 (= cell_7_8 8)))
 (let (($x3855 (= cell_7_8 7)))
 (let (($x5663 (= cell_7_8 6)))
 (let (($x2843 (= cell_7_8 5)))
 (let (($x2070 (= cell_7_8 4)))
 (let (($x2520 (= cell_7_8 3)))
 (let (($x4347 (= cell_7_8 2)))
 (let (($x374 (= cell_7_8 1)))
 (or $x374 $x4347 $x2520 $x2070 $x2843 $x5663 $x3855 $x3856 $x5740)))))))))))
(assert
 (let (($x771 (= cell_8_8 2)))
 (let (($x4580 (= cell_8_8 1)))
 (or $x4580 $x771 (= cell_8_8 3) (= cell_8_8 4) (= cell_8_8 5) (= cell_8_8 6) (= cell_8_8 7) (= cell_8_8 8) (= cell_8_8 9)))))
(assert
 (let (($x4084 (= cell_9_8 2)))
 (let (($x281 (= cell_9_8 1)))
 (or $x281 $x4084 (= cell_9_8 3) (= cell_9_8 4) (= cell_9_8 5) (= cell_9_8 6) (= cell_9_8 7) (= cell_9_8 8) (= cell_9_8 9)))))
(assert
 (let (($x314 (= cell_1_9 9)))
 (let (($x3533 (= cell_1_9 8)))
 (let (($x541 (= cell_1_9 7)))
 (let (($x5241 (= cell_1_9 6)))
 (let (($x105 (= cell_1_9 5)))
 (let (($x5644 (= cell_1_9 4)))
 (let (($x6203 (= cell_1_9 3)))
 (let (($x1979 (= cell_1_9 2)))
 (let (($x378 (= cell_1_9 1)))
 (or $x378 $x1979 $x6203 $x5644 $x105 $x5241 $x541 $x3533 $x314)))))))))))
(assert
 (let (($x2823 (= cell_2_9 9)))
 (let (($x1023 (= cell_2_9 8)))
 (let (($x4930 (= cell_2_9 7)))
 (let (($x1757 (= cell_2_9 6)))
 (let (($x3838 (= cell_2_9 5)))
 (let (($x16 (= cell_2_9 4)))
 (let (($x3482 (= cell_2_9 3)))
 (let (($x4676 (= cell_2_9 2)))
 (let (($x2882 (= cell_2_9 1)))
 (or $x2882 $x4676 $x3482 $x16 $x3838 $x1757 $x4930 $x1023 $x2823)))))))))))
(assert
 (let (($x135 (= cell_3_9 9)))
 (let (($x6404 (= cell_3_9 8)))
 (let (($x2641 (= cell_3_9 7)))
 (let (($x5504 (= cell_3_9 6)))
 (let (($x2999 (= cell_3_9 5)))
 (let (($x5430 (= cell_3_9 4)))
 (let (($x4155 (= cell_3_9 3)))
 (let (($x3952 (= cell_3_9 2)))
 (let (($x3503 (= cell_3_9 1)))
 (or $x3503 $x3952 $x4155 $x5430 $x2999 $x5504 $x2641 $x6404 $x135)))))))))))
(assert
 (let (($x4645 (= cell_4_9 9)))
 (let (($x4380 (= cell_4_9 8)))
 (let (($x5709 (= cell_4_9 7)))
 (let (($x6584 (= cell_4_9 6)))
 (let (($x3284 (= cell_4_9 5)))
 (let (($x5362 (= cell_4_9 4)))
 (let (($x673 (= cell_4_9 3)))
 (let (($x2852 (= cell_4_9 2)))
 (let (($x3745 (= cell_4_9 1)))
 (or $x3745 $x2852 $x673 $x5362 $x3284 $x6584 $x5709 $x4380 $x4645)))))))))))
(assert
 (let (($x5364 (= cell_5_9 9)))
 (let (($x1387 (= cell_5_9 8)))
 (let (($x5325 (= cell_5_9 7)))
 (let (($x980 (= cell_5_9 6)))
 (let (($x1233 (= cell_5_9 5)))
 (let (($x4109 (= cell_5_9 4)))
 (let (($x4689 (= cell_5_9 3)))
 (let (($x41 (= cell_5_9 2)))
 (let (($x8757 (= cell_5_9 1)))
 (or $x8757 $x41 $x4689 $x4109 $x1233 $x980 $x5325 $x1387 $x5364)))))))))))
(assert
 (let (($x835 (= cell_6_9 9)))
 (let (($x1411 (= cell_6_9 8)))
 (let (($x3355 (= cell_6_9 7)))
 (let (($x3762 (= cell_6_9 6)))
 (let (($x2679 (= cell_6_9 5)))
 (let (($x3097 (= cell_6_9 4)))
 (let (($x5556 (= cell_6_9 3)))
 (let (($x4565 (= cell_6_9 2)))
 (let (($x4374 (= cell_6_9 1)))
 (or $x4374 $x4565 $x5556 $x3097 $x2679 $x3762 $x3355 $x1411 $x835)))))))))))
(assert
 (let (($x4635 (= cell_7_9 1)))
 (or $x4635 (= cell_7_9 2) (= cell_7_9 3) (= cell_7_9 4) (= cell_7_9 5) (= cell_7_9 6) (= cell_7_9 7) (= cell_7_9 8) (= cell_7_9 9))))
(assert
 (let (($x3264 (= cell_8_9 1)))
 (or $x3264 (= cell_8_9 2) (= cell_8_9 3) (= cell_8_9 4) (= cell_8_9 5) (= cell_8_9 6) (= cell_8_9 7) (= cell_8_9 8) (= cell_8_9 9))))
(assert
 (let (($x4693 (= cell_9_9 1)))
 (or $x4693 (= cell_9_9 2) (= cell_9_9 3) (= cell_9_9 4) (= cell_9_9 5) (= cell_9_9 6) (= cell_9_9 7) (= cell_9_9 8) (= cell_9_9 9))))
(assert
 (and (distinct cell_1_1 cell_1_2 cell_1_3 cell_1_4 cell_1_5 cell_1_6 cell_1_7 cell_1_8 cell_1_9) true))
(assert
 (and (distinct cell_2_1 cell_2_2 cell_2_3 cell_2_4 cell_2_5 cell_2_6 cell_2_7 cell_2_8 cell_2_9) true))
(assert
 (and (distinct cell_3_1 cell_3_2 cell_3_3 cell_3_4 cell_3_5 cell_3_6 cell_3_7 cell_3_8 cell_3_9) true))
(assert
 (and (distinct cell_4_1 cell_4_2 cell_4_3 cell_4_4 cell_4_5 cell_4_6 cell_4_7 cell_4_8 cell_4_9) true))
(assert
 (and (distinct cell_5_1 cell_5_2 cell_5_3 cell_5_4 cell_5_5 cell_5_6 cell_5_7 cell_5_8 cell_5_9) true))
(assert
 (and (distinct cell_6_1 cell_6_2 cell_6_3 cell_6_4 cell_6_5 cell_6_6 cell_6_7 cell_6_8 cell_6_9) true))
(assert
 (and (distinct cell_7_1 cell_7_2 cell_7_3 cell_7_4 cell_7_5 cell_7_6 cell_7_7 cell_7_8 cell_7_9) true))
(assert
 (and (distinct cell_8_1 cell_8_2 cell_8_3 cell_8_4 cell_8_5 cell_8_6 cell_8_7 cell_8_8 cell_8_9) true))
(assert
 (and (distinct cell_9_1 cell_9_2 cell_9_3 cell_9_4 cell_9_5 cell_9_6 cell_9_7 cell_9_8 cell_9_9) true))
(assert
 (and (distinct cell_1_1 cell_2_1 cell_3_1 cell_4_1 cell_5_1 cell_6_1 cell_7_1 cell_8_1 cell_9_1) true))
(assert
 (and (distinct cell_1_2 cell_2_2 cell_3_2 cell_4_2 cell_5_2 cell_6_2 cell_7_2 cell_8_2 cell_9_2) true))
(assert
 (and (distinct cell_1_3 cell_2_3 cell_3_3 cell_4_3 cell_5_3 cell_6_3 cell_7_3 cell_8_3 cell_9_3) true))
(assert
 (and (distinct cell_1_4 cell_2_4 cell_3_4 cell_4_4 cell_5_4 cell_6_4 cell_7_4 cell_8_4 cell_9_4) true))
(assert
 (and (distinct cell_1_5 cell_2_5 cell_3_5 cell_4_5 cell_5_5 cell_6_5 cell_7_5 cell_8_5 cell_9_5) true))
(assert
 (and (distinct cell_1_6 cell_2_6 cell_3_6 cell_4_6 cell_5_6 cell_6_6 cell_7_6 cell_8_6 cell_9_6) true))
(assert
 (and (distinct cell_1_7 cell_2_7 cell_3_7 cell_4_7 cell_5_7 cell_6_7 cell_7_7 cell_8_7 cell_9_7) true))
(assert
 (and (distinct cell_1_8 cell_2_8 cell_3_8 cell_4_8 cell_5_8 cell_6_8 cell_7_8 cell_8_8 cell_9_8) true))
(assert
 (and (distinct cell_1_9 cell_2_9 cell_3_9 cell_4_9 cell_5_9 cell_6_9 cell_7_9 cell_8_9 cell_9_9) true))
(assert
 (and (distinct cell_1_1 cell_1_2 cell_1_3 cell_2_1 cell_2_2 cell_2_3 cell_3_1 cell_3_2 cell_3_3) true))
(assert
 (and (distinct cell_1_4 cell_1_5 cell_1_6 cell_2_4 cell_2_5 cell_2_6 cell_3_4 cell_3_5 cell_3_6) true))
(assert
 (and (distinct cell_1_7 cell_1_8 cell_1_9 cell_2_7 cell_2_8 cell_2_9 cell_3_7 cell_3_8 cell_3_9) true))
(assert
 (and (distinct cell_4_1 cell_4_2 cell_4_3 cell_5_1 cell_5_2 cell_5_3 cell_6_1 cell_6_2 cell_6_3) true))
(assert
 (and (distinct cell_4_4 cell_4_5 cell_4_6 cell_5_4 cell_5_5 cell_5_6 cell_6_4 cell_6_5 cell_6_6) true))
(assert
 (and (distinct cell_4_7 cell_4_8 cell_4_9 cell_5_7 cell_5_8 cell_5_9 cell_6_7 cell_6_8 cell_6_9) true))
(assert
 (and (distinct cell_7_1 cell_7_2 cell_7_3 cell_8_1 cell_8_2 cell_8_3 cell_9_1 cell_9_2 cell_9_3) true))
(assert
 (and (distinct cell_7_4 cell_7_5 cell_7_6 cell_8_4 cell_8_5 cell_8_6 cell_9_4 cell_9_5 cell_9_6) true))
(assert
 (and (distinct cell_7_7 cell_7_8 cell_7_9 cell_8_7 cell_8_8 cell_8_9 cell_9_7 cell_9_8 cell_9_9) true))
(assert
 (let (($x3011 (and (distinct cell_5_9 cell_6_8 cell_7_7 cell_8_6) true)))
 (let (($x4495 (and (distinct cell_2_9 cell_3_8 cell_4_7 cell_5_6 cell_6_5 cell_7_4 cell_8_3 cell_9_2) true)))
 (let (($x5664 (and (distinct cell_1_8 cell_2_7 cell_3_6 cell_4_5 cell_5_4 cell_6_3 cell_7_2 cell_8_1) true)))
 (let (($x3598 (and (distinct cell_1_5 cell_2_4 cell_3_3 cell_4_2) true)))
 (let (($x1117 (and (distinct cell_5_1 cell_6_2 cell_7_3 cell_8_4) true)))
 (let (($x3755 (and (distinct cell_2_1 cell_3_2 cell_4_3 cell_5_4 cell_6_5 cell_7_6 cell_8_7 cell_9_8) true)))
 (let (($x711 (and (distinct cell_1_2 cell_2_3 cell_3_4 cell_4_5 cell_5_6 cell_6_7 cell_7_8 cell_8_9) true)))
 (let (($x4908 (and (distinct cell_1_5 cell_2_6 cell_3_7 cell_4_8) true)))
 (and $x4908 $x711 $x3755 $x1117 $x3598 $x5664 $x4495 $x3011))))))))))
(assert
 (= cell_2_5 2))
(check-sat)
